\ Model Max-Clique-queen6-6
\ LP format - for model browsing. Use MPS format to capture full model detail.
Maximize
  x[0] + x[1] + x[2] + x[3] + x[4] + x[5] + x[6] + x[7] + x[8] + x[9]
   + x[10] + x[11] + x[12] + x[13] + x[14] + x[15] + x[16] + x[17] + x[18]
   + x[19] + x[20] + x[21] + x[22] + x[23] + x[24] + x[25] + x[26] + x[27]
   + x[28] + x[29] + x[30] + x[31] + x[32] + x[33] + x[34] + x[35]
Subject To
 C1[0,8]: x[0] + x[8] <= 1
 C1[0,9]: x[0] + x[9] <= 1
 C1[0,10]: x[0] + x[10] <= 1
 C1[0,11]: x[0] + x[11] <= 1
 C1[0,13]: x[0] + x[13] <= 1
 C1[0,15]: x[0] + x[15] <= 1
 C1[0,16]: x[0] + x[16] <= 1
 C1[0,17]: x[0] + x[17] <= 1
 C1[0,19]: x[0] + x[19] <= 1
 C1[0,20]: x[0] + x[20] <= 1
 C1[0,22]: x[0] + x[22] <= 1
 C1[0,23]: x[0] + x[23] <= 1
 C1[0,25]: x[0] + x[25] <= 1
 C1[0,26]: x[0] + x[26] <= 1
 C1[0,27]: x[0] + x[27] <= 1
 C1[0,29]: x[0] + x[29] <= 1
 C1[0,31]: x[0] + x[31] <= 1
 C1[0,32]: x[0] + x[32] <= 1
 C1[0,33]: x[0] + x[33] <= 1
 C1[0,34]: x[0] + x[34] <= 1
 C1[1,9]: x[1] + x[9] <= 1
 C1[1,10]: x[1] + x[10] <= 1
 C1[1,11]: x[1] + x[11] <= 1
 C1[1,12]: x[1] + x[12] <= 1
 C1[1,14]: x[1] + x[14] <= 1
 C1[1,16]: x[1] + x[16] <= 1
 C1[1,17]: x[1] + x[17] <= 1
 C1[1,18]: x[1] + x[18] <= 1
 C1[1,20]: x[1] + x[20] <= 1
 C1[1,21]: x[1] + x[21] <= 1
 C1[1,23]: x[1] + x[23] <= 1
 C1[1,24]: x[1] + x[24] <= 1
 C1[1,26]: x[1] + x[26] <= 1
 C1[1,27]: x[1] + x[27] <= 1
 C1[1,28]: x[1] + x[28] <= 1
 C1[1,30]: x[1] + x[30] <= 1
 C1[1,32]: x[1] + x[32] <= 1
 C1[1,33]: x[1] + x[33] <= 1
 C1[1,34]: x[1] + x[34] <= 1
 C1[1,35]: x[1] + x[35] <= 1
 C1[2,6]: x[2] + x[6] <= 1
 C1[2,10]: x[2] + x[10] <= 1
 C1[2,11]: x[2] + x[11] <= 1
 C1[2,13]: x[2] + x[13] <= 1
 C1[2,15]: x[2] + x[15] <= 1
 C1[2,17]: x[2] + x[17] <= 1
 C1[2,18]: x[2] + x[18] <= 1
 C1[2,19]: x[2] + x[19] <= 1
 C1[2,21]: x[2] + x[21] <= 1
 C1[2,22]: x[2] + x[22] <= 1
 C1[2,24]: x[2] + x[24] <= 1
 C1[2,25]: x[2] + x[25] <= 1
 C1[2,27]: x[2] + x[27] <= 1
 C1[2,28]: x[2] + x[28] <= 1
 C1[2,29]: x[2] + x[29] <= 1
 C1[2,30]: x[2] + x[30] <= 1
 C1[2,31]: x[2] + x[31] <= 1
 C1[2,33]: x[2] + x[33] <= 1
 C1[2,34]: x[2] + x[34] <= 1
 C1[2,35]: x[2] + x[35] <= 1
 C1[3,6]: x[3] + x[6] <= 1
 C1[3,7]: x[3] + x[7] <= 1
 C1[3,11]: x[3] + x[11] <= 1
 C1[3,12]: x[3] + x[12] <= 1
 C1[3,14]: x[3] + x[14] <= 1
 C1[3,16]: x[3] + x[16] <= 1
 C1[3,19]: x[3] + x[19] <= 1
 C1[3,20]: x[3] + x[20] <= 1
 C1[3,22]: x[3] + x[22] <= 1
 C1[3,23]: x[3] + x[23] <= 1
 C1[3,24]: x[3] + x[24] <= 1
 C1[3,25]: x[3] + x[25] <= 1
 C1[3,26]: x[3] + x[26] <= 1
 C1[3,28]: x[3] + x[28] <= 1
 C1[3,29]: x[3] + x[29] <= 1
 C1[3,30]: x[3] + x[30] <= 1
 C1[3,31]: x[3] + x[31] <= 1
 C1[3,32]: x[3] + x[32] <= 1
 C1[3,34]: x[3] + x[34] <= 1
 C1[3,35]: x[3] + x[35] <= 1
 C1[4,6]: x[4] + x[6] <= 1
 C1[4,7]: x[4] + x[7] <= 1
 C1[4,8]: x[4] + x[8] <= 1
 C1[4,12]: x[4] + x[12] <= 1
 C1[4,13]: x[4] + x[13] <= 1
 C1[4,15]: x[4] + x[15] <= 1
 C1[4,17]: x[4] + x[17] <= 1
 C1[4,18]: x[4] + x[18] <= 1
 C1[4,20]: x[4] + x[20] <= 1
 C1[4,21]: x[4] + x[21] <= 1
 C1[4,23]: x[4] + x[23] <= 1
 C1[4,25]: x[4] + x[25] <= 1
 C1[4,26]: x[4] + x[26] <= 1
 C1[4,27]: x[4] + x[27] <= 1
 C1[4,29]: x[4] + x[29] <= 1
 C1[4,30]: x[4] + x[30] <= 1
 C1[4,31]: x[4] + x[31] <= 1
 C1[4,32]: x[4] + x[32] <= 1
 C1[4,33]: x[4] + x[33] <= 1
 C1[4,35]: x[4] + x[35] <= 1
 C1[5,6]: x[5] + x[6] <= 1
 C1[5,7]: x[5] + x[7] <= 1
 C1[5,8]: x[5] + x[8] <= 1
 C1[5,9]: x[5] + x[9] <= 1
 C1[5,12]: x[5] + x[12] <= 1
 C1[5,13]: x[5] + x[13] <= 1
 C1[5,14]: x[5] + x[14] <= 1
 C1[5,16]: x[5] + x[16] <= 1
 C1[5,18]: x[5] + x[18] <= 1
 C1[5,19]: x[5] + x[19] <= 1
 C1[5,21]: x[5] + x[21] <= 1
 C1[5,22]: x[5] + x[22] <= 1
 C1[5,24]: x[5] + x[24] <= 1
 C1[5,26]: x[5] + x[26] <= 1
 C1[5,27]: x[5] + x[27] <= 1
 C1[5,28]: x[5] + x[28] <= 1
 C1[5,31]: x[5] + x[31] <= 1
 C1[5,32]: x[5] + x[32] <= 1
 C1[5,33]: x[5] + x[33] <= 1
 C1[5,34]: x[5] + x[34] <= 1
 C1[6,2]: x[2] + x[6] <= 1
 C1[6,3]: x[3] + x[6] <= 1
 C1[6,4]: x[4] + x[6] <= 1
 C1[6,5]: x[5] + x[6] <= 1
 C1[6,14]: x[6] + x[14] <= 1
 C1[6,15]: x[6] + x[15] <= 1
 C1[6,16]: x[6] + x[16] <= 1
 C1[6,17]: x[6] + x[17] <= 1
 C1[6,19]: x[6] + x[19] <= 1
 C1[6,21]: x[6] + x[21] <= 1
 C1[6,22]: x[6] + x[22] <= 1
 C1[6,23]: x[6] + x[23] <= 1
 C1[6,25]: x[6] + x[25] <= 1
 C1[6,26]: x[6] + x[26] <= 1
 C1[6,28]: x[6] + x[28] <= 1
 C1[6,29]: x[6] + x[29] <= 1
 C1[6,31]: x[6] + x[31] <= 1
 C1[6,32]: x[6] + x[32] <= 1
 C1[6,33]: x[6] + x[33] <= 1
 C1[6,35]: x[6] + x[35] <= 1
 C1[7,3]: x[3] + x[7] <= 1
 C1[7,4]: x[4] + x[7] <= 1
 C1[7,5]: x[5] + x[7] <= 1
 C1[7,15]: x[7] + x[15] <= 1
 C1[7,16]: x[7] + x[16] <= 1
 C1[7,17]: x[7] + x[17] <= 1
 C1[7,18]: x[7] + x[18] <= 1
 C1[7,20]: x[7] + x[20] <= 1
 C1[7,22]: x[7] + x[22] <= 1
 C1[7,23]: x[7] + x[23] <= 1
 C1[7,24]: x[7] + x[24] <= 1
 C1[7,26]: x[7] + x[26] <= 1
 C1[7,27]: x[7] + x[27] <= 1
 C1[7,29]: x[7] + x[29] <= 1
 C1[7,30]: x[7] + x[30] <= 1
 C1[7,32]: x[7] + x[32] <= 1
 C1[7,33]: x[7] + x[33] <= 1
 C1[7,34]: x[7] + x[34] <= 1
 C1[8,0]: x[0] + x[8] <= 1
 C1[8,4]: x[4] + x[8] <= 1
 C1[8,5]: x[5] + x[8] <= 1
 C1[8,12]: x[8] + x[12] <= 1
 C1[8,16]: x[8] + x[16] <= 1
 C1[8,17]: x[8] + x[17] <= 1
 C1[8,19]: x[8] + x[19] <= 1
 C1[8,21]: x[8] + x[21] <= 1
 C1[8,23]: x[8] + x[23] <= 1
 C1[8,24]: x[8] + x[24] <= 1
 C1[8,25]: x[8] + x[25] <= 1
 C1[8,27]: x[8] + x[27] <= 1
 C1[8,28]: x[8] + x[28] <= 1
 C1[8,30]: x[8] + x[30] <= 1
 C1[8,31]: x[8] + x[31] <= 1
 C1[8,33]: x[8] + x[33] <= 1
 C1[8,34]: x[8] + x[34] <= 1
 C1[8,35]: x[8] + x[35] <= 1
 C1[9,0]: x[0] + x[9] <= 1
 C1[9,1]: x[1] + x[9] <= 1
 C1[9,5]: x[5] + x[9] <= 1
 C1[9,12]: x[9] + x[12] <= 1
 C1[9,13]: x[9] + x[13] <= 1
 C1[9,17]: x[9] + x[17] <= 1
 C1[9,18]: x[9] + x[18] <= 1
 C1[9,20]: x[9] + x[20] <= 1
 C1[9,22]: x[9] + x[22] <= 1
 C1[9,25]: x[9] + x[25] <= 1
 C1[9,26]: x[9] + x[26] <= 1
 C1[9,28]: x[9] + x[28] <= 1
 C1[9,29]: x[9] + x[29] <= 1
 C1[9,30]: x[9] + x[30] <= 1
 C1[9,31]: x[9] + x[31] <= 1
 C1[9,32]: x[9] + x[32] <= 1
 C1[9,34]: x[9] + x[34] <= 1
 C1[9,35]: x[9] + x[35] <= 1
 C1[10,0]: x[0] + x[10] <= 1
 C1[10,1]: x[1] + x[10] <= 1
 C1[10,2]: x[2] + x[10] <= 1
 C1[10,12]: x[10] + x[12] <= 1
 C1[10,13]: x[10] + x[13] <= 1
 C1[10,14]: x[10] + x[14] <= 1
 C1[10,18]: x[10] + x[18] <= 1
 C1[10,19]: x[10] + x[19] <= 1
 C1[10,21]: x[10] + x[21] <= 1
 C1[10,23]: x[10] + x[23] <= 1
 C1[10,24]: x[10] + x[24] <= 1
 C1[10,26]: x[10] + x[26] <= 1
 C1[10,27]: x[10] + x[27] <= 1
 C1[10,29]: x[10] + x[29] <= 1
 C1[10,31]: x[10] + x[31] <= 1
 C1[10,32]: x[10] + x[32] <= 1
 C1[10,33]: x[10] + x[33] <= 1
 C1[10,35]: x[10] + x[35] <= 1
 C1[11,0]: x[0] + x[11] <= 1
 C1[11,1]: x[1] + x[11] <= 1
 C1[11,2]: x[2] + x[11] <= 1
 C1[11,3]: x[3] + x[11] <= 1
 C1[11,12]: x[11] + x[12] <= 1
 C1[11,13]: x[11] + x[13] <= 1
 C1[11,14]: x[11] + x[14] <= 1
 C1[11,15]: x[11] + x[15] <= 1
 C1[11,18]: x[11] + x[18] <= 1
 C1[11,19]: x[11] + x[19] <= 1
 C1[11,20]: x[11] + x[20] <= 1
 C1[11,22]: x[11] + x[22] <= 1
 C1[11,24]: x[11] + x[24] <= 1
 C1[11,25]: x[11] + x[25] <= 1
 C1[11,27]: x[11] + x[27] <= 1
 C1[11,28]: x[11] + x[28] <= 1
 C1[11,30]: x[11] + x[30] <= 1
 C1[11,32]: x[11] + x[32] <= 1
 C1[11,33]: x[11] + x[33] <= 1
 C1[11,34]: x[11] + x[34] <= 1
 C1[12,1]: x[1] + x[12] <= 1
 C1[12,3]: x[3] + x[12] <= 1
 C1[12,4]: x[4] + x[12] <= 1
 C1[12,5]: x[5] + x[12] <= 1
 C1[12,8]: x[8] + x[12] <= 1
 C1[12,9]: x[9] + x[12] <= 1
 C1[12,10]: x[10] + x[12] <= 1
 C1[12,11]: x[11] + x[12] <= 1
 C1[12,20]: x[12] + x[20] <= 1
 C1[12,21]: x[12] + x[21] <= 1
 C1[12,22]: x[12] + x[22] <= 1
 C1[12,23]: x[12] + x[23] <= 1
 C1[12,25]: x[12] + x[25] <= 1
 C1[12,27]: x[12] + x[27] <= 1
 C1[12,28]: x[12] + x[28] <= 1
 C1[12,29]: x[12] + x[29] <= 1
 C1[12,31]: x[12] + x[31] <= 1
 C1[12,32]: x[12] + x[32] <= 1
 C1[12,34]: x[12] + x[34] <= 1
 C1[12,35]: x[12] + x[35] <= 1
 C1[13,0]: x[0] + x[13] <= 1
 C1[13,2]: x[2] + x[13] <= 1
 C1[13,4]: x[4] + x[13] <= 1
 C1[13,5]: x[5] + x[13] <= 1
 C1[13,9]: x[9] + x[13] <= 1
 C1[13,10]: x[10] + x[13] <= 1
 C1[13,11]: x[11] + x[13] <= 1
 C1[13,21]: x[13] + x[21] <= 1
 C1[13,22]: x[13] + x[22] <= 1
 C1[13,23]: x[13] + x[23] <= 1
 C1[13,24]: x[13] + x[24] <= 1
 C1[13,26]: x[13] + x[26] <= 1
 C1[13,28]: x[13] + x[28] <= 1
 C1[13,29]: x[13] + x[29] <= 1
 C1[13,30]: x[13] + x[30] <= 1
 C1[13,32]: x[13] + x[32] <= 1
 C1[13,33]: x[13] + x[33] <= 1
 C1[13,35]: x[13] + x[35] <= 1
 C1[14,1]: x[1] + x[14] <= 1
 C1[14,3]: x[3] + x[14] <= 1
 C1[14,5]: x[5] + x[14] <= 1
 C1[14,6]: x[6] + x[14] <= 1
 C1[14,10]: x[10] + x[14] <= 1
 C1[14,11]: x[11] + x[14] <= 1
 C1[14,18]: x[14] + x[18] <= 1
 C1[14,22]: x[14] + x[22] <= 1
 C1[14,23]: x[14] + x[23] <= 1
 C1[14,25]: x[14] + x[25] <= 1
 C1[14,27]: x[14] + x[27] <= 1
 C1[14,29]: x[14] + x[29] <= 1
 C1[14,30]: x[14] + x[30] <= 1
 C1[14,31]: x[14] + x[31] <= 1
 C1[14,33]: x[14] + x[33] <= 1
 C1[14,34]: x[14] + x[34] <= 1
 C1[15,0]: x[0] + x[15] <= 1
 C1[15,2]: x[2] + x[15] <= 1
 C1[15,4]: x[4] + x[15] <= 1
 C1[15,6]: x[6] + x[15] <= 1
 C1[15,7]: x[7] + x[15] <= 1
 C1[15,11]: x[11] + x[15] <= 1
 C1[15,18]: x[15] + x[18] <= 1
 C1[15,19]: x[15] + x[19] <= 1
 C1[15,23]: x[15] + x[23] <= 1
 C1[15,24]: x[15] + x[24] <= 1
 C1[15,26]: x[15] + x[26] <= 1
 C1[15,28]: x[15] + x[28] <= 1
 C1[15,31]: x[15] + x[31] <= 1
 C1[15,32]: x[15] + x[32] <= 1
 C1[15,34]: x[15] + x[34] <= 1
 C1[15,35]: x[15] + x[35] <= 1
 C1[16,0]: x[0] + x[16] <= 1
 C1[16,1]: x[1] + x[16] <= 1
 C1[16,3]: x[3] + x[16] <= 1
 C1[16,5]: x[5] + x[16] <= 1
 C1[16,6]: x[6] + x[16] <= 1
 C1[16,7]: x[7] + x[16] <= 1
 C1[16,8]: x[8] + x[16] <= 1
 C1[16,18]: x[16] + x[18] <= 1
 C1[16,19]: x[16] + x[19] <= 1
 C1[16,20]: x[16] + x[20] <= 1
 C1[16,24]: x[16] + x[24] <= 1
 C1[16,25]: x[16] + x[25] <= 1
 C1[16,27]: x[16] + x[27] <= 1
 C1[16,29]: x[16] + x[29] <= 1
 C1[16,30]: x[16] + x[30] <= 1
 C1[16,32]: x[16] + x[32] <= 1
 C1[16,33]: x[16] + x[33] <= 1
 C1[16,35]: x[16] + x[35] <= 1
 C1[17,0]: x[0] + x[17] <= 1
 C1[17,1]: x[1] + x[17] <= 1
 C1[17,2]: x[2] + x[17] <= 1
 C1[17,4]: x[4] + x[17] <= 1
 C1[17,6]: x[6] + x[17] <= 1
 C1[17,7]: x[7] + x[17] <= 1
 C1[17,8]: x[8] + x[17] <= 1
 C1[17,9]: x[9] + x[17] <= 1
 C1[17,18]: x[17] + x[18] <= 1
 C1[17,19]: x[17] + x[19] <= 1
 C1[17,20]: x[17] + x[20] <= 1
 C1[17,21]: x[17] + x[21] <= 1
 C1[17,24]: x[17] + x[24] <= 1
 C1[17,25]: x[17] + x[25] <= 1
 C1[17,26]: x[17] + x[26] <= 1
 C1[17,28]: x[17] + x[28] <= 1
 C1[17,30]: x[17] + x[30] <= 1
 C1[17,31]: x[17] + x[31] <= 1
 C1[17,33]: x[17] + x[33] <= 1
 C1[17,34]: x[17] + x[34] <= 1
 C1[18,1]: x[1] + x[18] <= 1
 C1[18,2]: x[2] + x[18] <= 1
 C1[18,4]: x[4] + x[18] <= 1
 C1[18,5]: x[5] + x[18] <= 1
 C1[18,7]: x[7] + x[18] <= 1
 C1[18,9]: x[9] + x[18] <= 1
 C1[18,10]: x[10] + x[18] <= 1
 C1[18,11]: x[11] + x[18] <= 1
 C1[18,14]: x[14] + x[18] <= 1
 C1[18,15]: x[15] + x[18] <= 1
 C1[18,16]: x[16] + x[18] <= 1
 C1[18,17]: x[17] + x[18] <= 1
 C1[18,26]: x[18] + x[26] <= 1
 C1[18,27]: x[18] + x[27] <= 1
 C1[18,28]: x[18] + x[28] <= 1
 C1[18,29]: x[18] + x[29] <= 1
 C1[18,31]: x[18] + x[31] <= 1
 C1[18,33]: x[18] + x[33] <= 1
 C1[18,34]: x[18] + x[34] <= 1
 C1[18,35]: x[18] + x[35] <= 1
 C1[19,0]: x[0] + x[19] <= 1
 C1[19,2]: x[2] + x[19] <= 1
 C1[19,3]: x[3] + x[19] <= 1
 C1[19,5]: x[5] + x[19] <= 1
 C1[19,6]: x[6] + x[19] <= 1
 C1[19,8]: x[8] + x[19] <= 1
 C1[19,10]: x[10] + x[19] <= 1
 C1[19,11]: x[11] + x[19] <= 1
 C1[19,15]: x[15] + x[19] <= 1
 C1[19,16]: x[16] + x[19] <= 1
 C1[19,17]: x[17] + x[19] <= 1
 C1[19,27]: x[19] + x[27] <= 1
 C1[19,28]: x[19] + x[28] <= 1
 C1[19,29]: x[19] + x[29] <= 1
 C1[19,30]: x[19] + x[30] <= 1
 C1[19,32]: x[19] + x[32] <= 1
 C1[19,34]: x[19] + x[34] <= 1
 C1[19,35]: x[19] + x[35] <= 1
 C1[20,0]: x[0] + x[20] <= 1
 C1[20,1]: x[1] + x[20] <= 1
 C1[20,3]: x[3] + x[20] <= 1
 C1[20,4]: x[4] + x[20] <= 1
 C1[20,7]: x[7] + x[20] <= 1
 C1[20,9]: x[9] + x[20] <= 1
 C1[20,11]: x[11] + x[20] <= 1
 C1[20,12]: x[12] + x[20] <= 1
 C1[20,16]: x[16] + x[20] <= 1
 C1[20,17]: x[17] + x[20] <= 1
 C1[20,24]: x[20] + x[24] <= 1
 C1[20,28]: x[20] + x[28] <= 1
 C1[20,29]: x[20] + x[29] <= 1
 C1[20,31]: x[20] + x[31] <= 1
 C1[20,33]: x[20] + x[33] <= 1
 C1[20,35]: x[20] + x[35] <= 1
 C1[21,1]: x[1] + x[21] <= 1
 C1[21,2]: x[2] + x[21] <= 1
 C1[21,4]: x[4] + x[21] <= 1
 C1[21,5]: x[5] + x[21] <= 1
 C1[21,6]: x[6] + x[21] <= 1
 C1[21,8]: x[8] + x[21] <= 1
 C1[21,10]: x[10] + x[21] <= 1
 C1[21,12]: x[12] + x[21] <= 1
 C1[21,13]: x[13] + x[21] <= 1
 C1[21,17]: x[17] + x[21] <= 1
 C1[21,24]: x[21] + x[24] <= 1
 C1[21,25]: x[21] + x[25] <= 1
 C1[21,29]: x[21] + x[29] <= 1
 C1[21,30]: x[21] + x[30] <= 1
 C1[21,32]: x[21] + x[32] <= 1
 C1[21,34]: x[21] + x[34] <= 1
 C1[22,0]: x[0] + x[22] <= 1
 C1[22,2]: x[2] + x[22] <= 1
 C1[22,3]: x[3] + x[22] <= 1
 C1[22,5]: x[5] + x[22] <= 1
 C1[22,6]: x[6] + x[22] <= 1
 C1[22,7]: x[7] + x[22] <= 1
 C1[22,9]: x[9] + x[22] <= 1
 C1[22,11]: x[11] + x[22] <= 1
 C1[22,12]: x[12] + x[22] <= 1
 C1[22,13]: x[13] + x[22] <= 1
 C1[22,14]: x[14] + x[22] <= 1
 C1[22,24]: x[22] + x[24] <= 1
 C1[22,25]: x[22] + x[25] <= 1
 C1[22,26]: x[22] + x[26] <= 1
 C1[22,30]: x[22] + x[30] <= 1
 C1[22,31]: x[22] + x[31] <= 1
 C1[22,33]: x[22] + x[33] <= 1
 C1[22,35]: x[22] + x[35] <= 1
 C1[23,0]: x[0] + x[23] <= 1
 C1[23,1]: x[1] + x[23] <= 1
 C1[23,3]: x[3] + x[23] <= 1
 C1[23,4]: x[4] + x[23] <= 1
 C1[23,6]: x[6] + x[23] <= 1
 C1[23,7]: x[7] + x[23] <= 1
 C1[23,8]: x[8] + x[23] <= 1
 C1[23,10]: x[10] + x[23] <= 1
 C1[23,12]: x[12] + x[23] <= 1
 C1[23,13]: x[13] + x[23] <= 1
 C1[23,14]: x[14] + x[23] <= 1
 C1[23,15]: x[15] + x[23] <= 1
 C1[23,24]: x[23] + x[24] <= 1
 C1[23,25]: x[23] + x[25] <= 1
 C1[23,26]: x[23] + x[26] <= 1
 C1[23,27]: x[23] + x[27] <= 1
 C1[23,30]: x[23] + x[30] <= 1
 C1[23,31]: x[23] + x[31] <= 1
 C1[23,32]: x[23] + x[32] <= 1
 C1[23,34]: x[23] + x[34] <= 1
 C1[24,1]: x[1] + x[24] <= 1
 C1[24,2]: x[2] + x[24] <= 1
 C1[24,3]: x[3] + x[24] <= 1
 C1[24,5]: x[5] + x[24] <= 1
 C1[24,7]: x[7] + x[24] <= 1
 C1[24,8]: x[8] + x[24] <= 1
 C1[24,10]: x[10] + x[24] <= 1
 C1[24,11]: x[11] + x[24] <= 1
 C1[24,13]: x[13] + x[24] <= 1
 C1[24,15]: x[15] + x[24] <= 1
 C1[24,16]: x[16] + x[24] <= 1
 C1[24,17]: x[17] + x[24] <= 1
 C1[24,20]: x[20] + x[24] <= 1
 C1[24,21]: x[21] + x[24] <= 1
 C1[24,22]: x[22] + x[24] <= 1
 C1[24,23]: x[23] + x[24] <= 1
 C1[24,32]: x[24] + x[32] <= 1
 C1[24,33]: x[24] + x[33] <= 1
 C1[24,34]: x[24] + x[34] <= 1
 C1[24,35]: x[24] + x[35] <= 1
 C1[25,0]: x[0] + x[25] <= 1
 C1[25,2]: x[2] + x[25] <= 1
 C1[25,3]: x[3] + x[25] <= 1
 C1[25,4]: x[4] + x[25] <= 1
 C1[25,6]: x[6] + x[25] <= 1
 C1[25,8]: x[8] + x[25] <= 1
 C1[25,9]: x[9] + x[25] <= 1
 C1[25,11]: x[11] + x[25] <= 1
 C1[25,12]: x[12] + x[25] <= 1
 C1[25,14]: x[14] + x[25] <= 1
 C1[25,16]: x[16] + x[25] <= 1
 C1[25,17]: x[17] + x[25] <= 1
 C1[25,21]: x[21] + x[25] <= 1
 C1[25,22]: x[22] + x[25] <= 1
 C1[25,23]: x[23] + x[25] <= 1
 C1[25,33]: x[25] + x[33] <= 1
 C1[25,34]: x[25] + x[34] <= 1
 C1[25,35]: x[25] + x[35] <= 1
 C1[26,0]: x[0] + x[26] <= 1
 C1[26,1]: x[1] + x[26] <= 1
 C1[26,3]: x[3] + x[26] <= 1
 C1[26,4]: x[4] + x[26] <= 1
 C1[26,5]: x[5] + x[26] <= 1
 C1[26,6]: x[6] + x[26] <= 1
 C1[26,7]: x[7] + x[26] <= 1
 C1[26,9]: x[9] + x[26] <= 1
 C1[26,10]: x[10] + x[26] <= 1
 C1[26,13]: x[13] + x[26] <= 1
 C1[26,15]: x[15] + x[26] <= 1
 C1[26,17]: x[17] + x[26] <= 1
 C1[26,18]: x[18] + x[26] <= 1
 C1[26,22]: x[22] + x[26] <= 1
 C1[26,23]: x[23] + x[26] <= 1
 C1[26,30]: x[26] + x[30] <= 1
 C1[26,34]: x[26] + x[34] <= 1
 C1[26,35]: x[26] + x[35] <= 1
 C1[27,0]: x[0] + x[27] <= 1
 C1[27,1]: x[1] + x[27] <= 1
 C1[27,2]: x[2] + x[27] <= 1
 C1[27,4]: x[4] + x[27] <= 1
 C1[27,5]: x[5] + x[27] <= 1
 C1[27,7]: x[7] + x[27] <= 1
 C1[27,8]: x[8] + x[27] <= 1
 C1[27,10]: x[10] + x[27] <= 1
 C1[27,11]: x[11] + x[27] <= 1
 C1[27,12]: x[12] + x[27] <= 1
 C1[27,14]: x[14] + x[27] <= 1
 C1[27,16]: x[16] + x[27] <= 1
 C1[27,18]: x[18] + x[27] <= 1
 C1[27,19]: x[19] + x[27] <= 1
 C1[27,23]: x[23] + x[27] <= 1
 C1[27,30]: x[27] + x[30] <= 1
 C1[27,31]: x[27] + x[31] <= 1
 C1[27,35]: x[27] + x[35] <= 1
 C1[28,1]: x[1] + x[28] <= 1
 C1[28,2]: x[2] + x[28] <= 1
 C1[28,3]: x[3] + x[28] <= 1
 C1[28,5]: x[5] + x[28] <= 1
 C1[28,6]: x[6] + x[28] <= 1
 C1[28,8]: x[8] + x[28] <= 1
 C1[28,9]: x[9] + x[28] <= 1
 C1[28,11]: x[11] + x[28] <= 1
 C1[28,12]: x[12] + x[28] <= 1
 C1[28,13]: x[13] + x[28] <= 1
 C1[28,15]: x[15] + x[28] <= 1
 C1[28,17]: x[17] + x[28] <= 1
 C1[28,18]: x[18] + x[28] <= 1
 C1[28,19]: x[19] + x[28] <= 1
 C1[28,20]: x[20] + x[28] <= 1
 C1[28,30]: x[28] + x[30] <= 1
 C1[28,31]: x[28] + x[31] <= 1
 C1[28,32]: x[28] + x[32] <= 1
 C1[29,0]: x[0] + x[29] <= 1
 C1[29,2]: x[2] + x[29] <= 1
 C1[29,3]: x[3] + x[29] <= 1
 C1[29,4]: x[4] + x[29] <= 1
 C1[29,6]: x[6] + x[29] <= 1
 C1[29,7]: x[7] + x[29] <= 1
 C1[29,9]: x[9] + x[29] <= 1
 C1[29,10]: x[10] + x[29] <= 1
 C1[29,12]: x[12] + x[29] <= 1
 C1[29,13]: x[13] + x[29] <= 1
 C1[29,14]: x[14] + x[29] <= 1
 C1[29,16]: x[16] + x[29] <= 1
 C1[29,18]: x[18] + x[29] <= 1
 C1[29,19]: x[19] + x[29] <= 1
 C1[29,20]: x[20] + x[29] <= 1
 C1[29,21]: x[21] + x[29] <= 1
 C1[29,30]: x[29] + x[30] <= 1
 C1[29,31]: x[29] + x[31] <= 1
 C1[29,32]: x[29] + x[32] <= 1
 C1[29,33]: x[29] + x[33] <= 1
 C1[30,1]: x[1] + x[30] <= 1
 C1[30,2]: x[2] + x[30] <= 1
 C1[30,3]: x[3] + x[30] <= 1
 C1[30,4]: x[4] + x[30] <= 1
 C1[30,7]: x[7] + x[30] <= 1
 C1[30,8]: x[8] + x[30] <= 1
 C1[30,9]: x[9] + x[30] <= 1
 C1[30,11]: x[11] + x[30] <= 1
 C1[30,13]: x[13] + x[30] <= 1
 C1[30,14]: x[14] + x[30] <= 1
 C1[30,16]: x[16] + x[30] <= 1
 C1[30,17]: x[17] + x[30] <= 1
 C1[30,19]: x[19] + x[30] <= 1
 C1[30,21]: x[21] + x[30] <= 1
 C1[30,22]: x[22] + x[30] <= 1
 C1[30,23]: x[23] + x[30] <= 1
 C1[30,26]: x[26] + x[30] <= 1
 C1[30,27]: x[27] + x[30] <= 1
 C1[30,28]: x[28] + x[30] <= 1
 C1[30,29]: x[29] + x[30] <= 1
 C1[31,0]: x[0] + x[31] <= 1
 C1[31,2]: x[2] + x[31] <= 1
 C1[31,3]: x[3] + x[31] <= 1
 C1[31,4]: x[4] + x[31] <= 1
 C1[31,5]: x[5] + x[31] <= 1
 C1[31,6]: x[6] + x[31] <= 1
 C1[31,8]: x[8] + x[31] <= 1
 C1[31,9]: x[9] + x[31] <= 1
 C1[31,10]: x[10] + x[31] <= 1
 C1[31,12]: x[12] + x[31] <= 1
 C1[31,14]: x[14] + x[31] <= 1
 C1[31,15]: x[15] + x[31] <= 1
 C1[31,17]: x[17] + x[31] <= 1
 C1[31,18]: x[18] + x[31] <= 1
 C1[31,20]: x[20] + x[31] <= 1
 C1[31,22]: x[22] + x[31] <= 1
 C1[31,23]: x[23] + x[31] <= 1
 C1[31,27]: x[27] + x[31] <= 1
 C1[31,28]: x[28] + x[31] <= 1
 C1[31,29]: x[29] + x[31] <= 1
 C1[32,0]: x[0] + x[32] <= 1
 C1[32,1]: x[1] + x[32] <= 1
 C1[32,3]: x[3] + x[32] <= 1
 C1[32,4]: x[4] + x[32] <= 1
 C1[32,5]: x[5] + x[32] <= 1
 C1[32,6]: x[6] + x[32] <= 1
 C1[32,7]: x[7] + x[32] <= 1
 C1[32,9]: x[9] + x[32] <= 1
 C1[32,10]: x[10] + x[32] <= 1
 C1[32,11]: x[11] + x[32] <= 1
 C1[32,12]: x[12] + x[32] <= 1
 C1[32,13]: x[13] + x[32] <= 1
 C1[32,15]: x[15] + x[32] <= 1
 C1[32,16]: x[16] + x[32] <= 1
 C1[32,19]: x[19] + x[32] <= 1
 C1[32,21]: x[21] + x[32] <= 1
 C1[32,23]: x[23] + x[32] <= 1
 C1[32,24]: x[24] + x[32] <= 1
 C1[32,28]: x[28] + x[32] <= 1
 C1[32,29]: x[29] + x[32] <= 1
 C1[33,0]: x[0] + x[33] <= 1
 C1[33,1]: x[1] + x[33] <= 1
 C1[33,2]: x[2] + x[33] <= 1
 C1[33,4]: x[4] + x[33] <= 1
 C1[33,5]: x[5] + x[33] <= 1
 C1[33,6]: x[6] + x[33] <= 1
 C1[33,7]: x[7] + x[33] <= 1
 C1[33,8]: x[8] + x[33] <= 1
 C1[33,10]: x[10] + x[33] <= 1
 C1[33,11]: x[11] + x[33] <= 1
 C1[33,13]: x[13] + x[33] <= 1
 C1[33,14]: x[14] + x[33] <= 1
 C1[33,16]: x[16] + x[33] <= 1
 C1[33,17]: x[17] + x[33] <= 1
 C1[33,18]: x[18] + x[33] <= 1
 C1[33,20]: x[20] + x[33] <= 1
 C1[33,22]: x[22] + x[33] <= 1
 C1[33,24]: x[24] + x[33] <= 1
 C1[33,25]: x[25] + x[33] <= 1
 C1[33,29]: x[29] + x[33] <= 1
 C1[34,0]: x[0] + x[34] <= 1
 C1[34,1]: x[1] + x[34] <= 1
 C1[34,2]: x[2] + x[34] <= 1
 C1[34,3]: x[3] + x[34] <= 1
 C1[34,5]: x[5] + x[34] <= 1
 C1[34,7]: x[7] + x[34] <= 1
 C1[34,8]: x[8] + x[34] <= 1
 C1[34,9]: x[9] + x[34] <= 1
 C1[34,11]: x[11] + x[34] <= 1
 C1[34,12]: x[12] + x[34] <= 1
 C1[34,14]: x[14] + x[34] <= 1
 C1[34,15]: x[15] + x[34] <= 1
 C1[34,17]: x[17] + x[34] <= 1
 C1[34,18]: x[18] + x[34] <= 1
 C1[34,19]: x[19] + x[34] <= 1
 C1[34,21]: x[21] + x[34] <= 1
 C1[34,23]: x[23] + x[34] <= 1
 C1[34,24]: x[24] + x[34] <= 1
 C1[34,25]: x[25] + x[34] <= 1
 C1[34,26]: x[26] + x[34] <= 1
 C1[35,1]: x[1] + x[35] <= 1
 C1[35,2]: x[2] + x[35] <= 1
 C1[35,3]: x[3] + x[35] <= 1
 C1[35,4]: x[4] + x[35] <= 1
 C1[35,6]: x[6] + x[35] <= 1
 C1[35,8]: x[8] + x[35] <= 1
 C1[35,9]: x[9] + x[35] <= 1
 C1[35,10]: x[10] + x[35] <= 1
 C1[35,12]: x[12] + x[35] <= 1
 C1[35,13]: x[13] + x[35] <= 1
 C1[35,15]: x[15] + x[35] <= 1
 C1[35,16]: x[16] + x[35] <= 1
 C1[35,18]: x[18] + x[35] <= 1
 C1[35,19]: x[19] + x[35] <= 1
 C1[35,20]: x[20] + x[35] <= 1
 C1[35,22]: x[22] + x[35] <= 1
 C1[35,24]: x[24] + x[35] <= 1
 C1[35,25]: x[25] + x[35] <= 1
 C1[35,26]: x[26] + x[35] <= 1
 C1[35,27]: x[27] + x[35] <= 1
Bounds
Binaries
 x[0] x[1] x[2] x[3] x[4] x[5] x[6] x[7] x[8] x[9] x[10] x[11] x[12] x[13]
 x[14] x[15] x[16] x[17] x[18] x[19] x[20] x[21] x[22] x[23] x[24] x[25]
 x[26] x[27] x[28] x[29] x[30] x[31] x[32] x[33] x[34] x[35]
End
